8 10 10 4 -1 1 -1 5 0 -1 
7 3 5 5 0 2 -1 5 6 -1 
9 5 -1 -1 -1 2 8 0 7 -1 
5 6 9 3 0 4 7 0 1 -1 
1 7 4 3 0 5 10 0 2 -1 
-1 4 0 10 4 10 5 10 9 -1 
10 5 5 8 5 5 9 0 8 -1 
9 2 3 -1 3 1 9 10 1 -1 
2 10 2 9 7 4 4 -1 10 -1 
-1 10 0 2 4 4 9 1 5 -1 
